NAME: ACTUAL_TOURS/amz0538
TYPE: TOUR
COMMENT: RouteID_392abad3-e25e-4744-81f8-cbc919229705
DIMENSION: 83
TOUR_SECTION
35
18
78
34
49
20
11
29
82
72
61
16
28
54
65
9
17
25
44
63
68
42
14
60
52
41
79
43
59
45
51
75
66
21
15
32
67
70
76
24
37
10
62
48
55
26
4
50
1
58
36
73
33
80
5
6
12
69
3
31
19
83
74
77
46
7
23
2
39
71
64
38
57
40
47
81
8
27
22
30
53
56
13
-1
EOF
